p cnf 143 488
c t mc
-3 -1 0
-3 2 0
1 -2 3 0
-5 1 0
-5 -4 0
-1 4 5 0
-5 6 -7 0
5 -6 -7 0
-5 -6 7 0
5 6 7 0
7 -5 -8 0
-7 5 -8 0
7 5 8 0
-7 -5 8 0
9 3 0
9 -8 0
-3 8 -9 0
5 11 -12 0
-5 -11 -12 0
5 -11 12 0
-5 11 12 0
13 -10 0
13 -12 0
10 12 -13 0
-14 9 0
-14 13 0
-9 -13 14 0
16 17 -18 0
-16 -17 -18 0
16 -17 18 0
-16 17 18 0
18 -12 -19 0
-18 12 -19 0
18 12 19 0
-18 -12 19 0
-20 -15 0
-20 19 0
15 -19 20 0
-14 -20 -21 0
14 20 -21 0
-14 20 21 0
14 -20 21 0
-23 -22 0
-23 20 0
22 -20 23 0
-25 -17 -26 0
25 17 -26 0
-25 17 26 0
25 -17 26 0
27 -24 0
27 -26 0
24 26 -27 0
23 -27 -28 0
-23 27 -28 0
23 27 28 0
-23 -27 28 0
-21 -28 -29 0
21 28 -29 0
-21 28 29 0
21 -28 29 0
-30 31 -32 0
30 -31 -32 0
-30 -31 32 0
30 31 32 0
33 -32 0
33 16 0
32 -16 -33 0
-31 -34 -35 0
31 34 -35 0
-31 34 35 0
31 -34 35 0
36 -31 0
36 -35 0
31 35 -36 0
36 -37 -38 0
-36 37 -38 0
36 37 38 0
-36 -37 38 0
39 26 0
39 12 0
-26 -12 -39 0
38 -39 -40 0
-38 39 -40 0
38 39 40 0
-38 -39 40 0
-41 33 0
-41 40 0
-33 -40 41 0
-31 17 -42 0
31 -17 -42 0
-31 -17 42 0
31 17 42 0
-45 -43 0
-45 44 0
43 -44 45 0
47 -45 0
47 46 0
45 -46 -47 0
-42 47 -48 0
42 -47 -48 0
-42 -47 48 0
42 47 48 0
-49 48 0
-49 -12 0
-48 12 49 0
-50 8 0
-50 46 0
-8 -46 50 0
17 15 -51 0
-17 -15 -51 0
17 -15 51 0
-17 15 51 0
-52 51 0
-52 -46 0
-51 46 52 0
50 52 -53 0
-50 -52 -53 0
50 -52 53 0
-50 52 53 0
-54 53 0
-54 36 0
-53 -36 54 0
-49 -54 -55 0
49 54 -55 0
-49 54 55 0
49 -54 55 0
30 -4 -56 0
-30 4 -56 0
30 4 56 0
-30 -4 56 0
-22 56 -57 0
22 -56 -57 0
-22 -56 57 0
22 56 57 0
-36 35 -58 0
36 -35 -58 0
-36 -35 58 0
36 35 58 0
-59 58 0
-59 -7 0
-58 7 59 0
-60 57 0
-60 -59 0
-57 59 60 0
61 55 0
61 60 0
-55 -60 -61 0
62 -41 0
62 -61 0
41 61 -62 0
-56 -38 -63 0
56 38 -63 0
-56 38 63 0
56 -38 63 0
64 63 0
64 52 0
-63 -52 -64 0
66 -65 0
66 8 0
65 -8 -66 0
-67 64 0
-67 66 0
-64 -66 67 0
-68 14 0
-68 -45 0
-14 45 68 0
-69 68 0
-69 20 0
-68 -20 69 0
-70 -42 0
-70 -24 0
42 24 70 0
-69 70 -71 0
69 -70 -71 0
-69 -70 71 0
69 70 71 0
72 67 0
72 -71 0
-67 71 -72 0
-62 -72 -73 0
62 72 -73 0
-62 72 73 0
62 -72 73 0
74 29 0
74 73 0
-29 -73 -74 0
75 -34 0
75 -65 0
34 65 -75 0
76 46 0
76 -75 0
-46 75 -76 0
77 48 0
77 76 0
-48 -76 -77 0
78 46 0
78 -3 0
-46 3 -78 0
-79 43 0
-79 78 0
-43 -78 79 0
77 -79 -80 0
-77 79 -80 0
77 79 80 0
-77 -79 80 0
8 18 -81 0
-8 -18 -81 0
8 -18 81 0
-8 18 81 0
-82 15 0
-82 -81 0
-15 81 82 0
22 -47 -83 0
-22 47 -83 0
22 47 83 0
-22 -47 83 0
84 82 0
84 -83 0
-82 83 -84 0
-50 -81 -85 0
50 81 -85 0
-50 81 85 0
50 -81 85 0
-84 -85 -86 0
84 85 -86 0
-84 85 86 0
84 -85 86 0
87 -39 0
87 17 0
39 -17 -87 0
88 47 0
88 -56 0
-47 56 -88 0
89 87 0
89 -88 0
-87 88 -89 0
90 -65 0
90 34 0
65 -34 -90 0
35 31 -91 0
-35 -31 -91 0
35 -31 91 0
-35 31 91 0
90 91 -92 0
-90 -91 -92 0
90 -91 92 0
-90 91 92 0
-93 -51 0
-93 -92 0
51 92 93 0
-94 -89 0
-94 93 0
89 -93 94 0
-86 94 -95 0
86 -94 -95 0
-86 -94 95 0
86 94 95 0
96 -80 0
96 -95 0
80 95 -96 0
-11 -8 -97 0
11 8 -97 0
-11 8 97 0
11 -8 97 0
98 -51 0
98 2 0
51 -2 -98 0
-99 -12 0
-99 2 0
12 -2 99 0
-100 -98 0
-100 -99 0
98 99 100 0
101 -24 0
101 91 0
24 -91 -101 0
102 -42 0
102 4 0
42 -4 -102 0
-103 -90 0
-103 -102 0
90 102 103 0
104 -12 0
104 58 0
12 -58 -104 0
-105 -103 0
-105 -104 0
103 104 105 0
-106 -101 0
-106 -105 0
101 105 106 0
-100 -106 -107 0
100 106 -107 0
-100 106 107 0
100 -106 107 0
-108 97 0
-108 -107 0
-97 107 108 0
109 -30 0
109 -48 0
30 48 -109 0
110 39 0
110 -20 0
-39 20 -110 0
-111 -110 0
-111 91 0
110 -91 111 0
-109 111 -112 0
109 -111 -112 0
-109 -111 112 0
109 111 112 0
-113 108 0
-113 112 0
-108 -112 113 0
114 -5 0
114 11 0
5 -11 -114 0
-115 12 0
-115 -28 0
-12 28 115 0
-116 52 0
-116 33 0
-52 -33 116 0
117 115 0
117 116 0
-115 -116 -117 0
-118 -91 0
-118 30 0
91 -30 118 0
-119 -9 0
-119 -118 0
9 118 119 0
117 -119 -120 0
-117 119 -120 0
117 119 120 0
-117 -119 120 0
-121 114 0
-121 -120 0
-114 120 121 0
122 113 0
122 -121 0
-113 121 -122 0
-123 -53 0
-123 6 0
53 -6 123 0
-124 123 0
-124 -12 0
-123 12 124 0
-125 -24 0
-125 81 0
24 -81 125 0
-124 125 -126 0
124 -125 -126 0
-124 -125 126 0
124 125 126 0
-127 122 0
-127 126 0
-122 -126 127 0
128 96 0
128 127 0
-96 -127 -128 0
74 128 -129 0
-74 -128 -129 0
74 -128 129 0
-74 128 129 0
-130 10 0
-130 -11 0
-10 11 130 0
131 1 0
131 45 0
-1 -45 -131 0
-130 -131 -132 0
130 131 -132 0
-130 131 132 0
130 -131 132 0
133 -51 0
133 47 0
51 -47 -133 0
-134 44 0
-134 133 0
-44 -133 134 0
136 -6 0
136 135 0
6 -135 -136 0
137 -134 0
137 -136 0
134 136 -137 0
138 -51 0
138 -23 0
51 23 -138 0
15 63 -139 0
-15 -63 -139 0
15 -63 139 0
-15 63 139 0
140 -138 0
140 -139 0
138 139 -140 0
141 -137 0
141 140 0
137 -140 -141 0
142 -132 0
142 -141 0
132 141 -142 0
143 129 0
143 142 0
-129 -142 -143 0
120 -2 37 23 0
-62 -68 -138 -10 -19 0
57 -1 -139 -85 119 0
77 -11 6 48 7 5 -57 -41 0
-31 -21 -33 -22 0
-55 107 61 -114 52 -86 112 78 119 -134 0
129 74 -63 -101 111 20 -4 0
57 -12 138 0
82 62 -51 -87 -134 15 96 -29 97 -18 0
-59 -99 -104 66 23 43 -56 17 15 0
-29 98 133 60 103 99 -119 0
128 80 50 -109 -138 120 0
8 48 10 138 -90 -91 -133 -51 -21 0
39 -131 -99 -10 -87 0
-10 63 -84 48 -80 -65 0
108 -9 106 40 88 94 -25 -118 0
94 -126 75 24 80 63 95 -104 97 0
62 -85 124 -79 -127 47 0
-142 -36 -17 -89 -117 128 -29 15 0
-57 106 -20 125 134 0
125 5 104 44 -53 -128 119 -42 0
-41 13 36 0
123 -48 -111 12 0
46 18 132 0
-119 6 36 81 0
-142 31 -73 28 85 41 63 81 0
82 60 112 89 139 91 63 -16 70 71 0
-108 -130 36 -46 -85 90 28 -32 58 52 0
-110 59 -32 -3 82 0
126 118 -110 -102 77 0
-4 -107 19 140 0
-41 15 47 0
-9 78 98 87 -131 -32 -129 -22 -127 64 0
-51 -28 -12 -85 53 101 -129 0
-125 -88 -141 -122 -14 18 -136 -64 -76 0
-77 69 2 3 -82 -66 -27 -134 71 63 0
127 -123 -70 -46 61 -113 -88 0
55 98 -142 -8 -70 -4 46 0
10 -68 -106 0
129 77 10 0
-12 139 -64 -58 -59 -42 0
44 -53 78 -56 -119 0
19 119 -95 17 27 -117 0
10 -24 -13 79 -22 -55 -107 -21 -92 -91 0
-90 -98 89 -99 127 -16 -1 -58 116 75 0
69 45 67 107 -97 0
103 -140 34 -137 -76 -66 46 0
-75 22 137 42 -91 112 115 -68 73 0
102 45 66 25 65 -123 -55 -98 107 0
91 -139 -143 59 52 120 24 93 0
-92 -43 -4 122 -69 -68 0
-42 -106 -73 52 102 -131 -14 -44 0
-33 87 105 -23 53 -92 63 101 -86 75 0
-83 134 45 139 -24 -49 -66 7 0
-14 -18 -141 0
-71 -132 0
13 131 38 119 -141 4 -87 0
17 118 55 8 0
-114 133 92 134 129 0
89 132 3 -41 108 17 -98 138 -46 0
-113 -10 -141 -102 0
-137 -59 -1 22 52 -8 -47 -73 -39 0
110 62 -107 -93 -67 88 -90 138 0
-15 -83 -84 53 0
123 -52 -58 -98 35 17 83 131 -4 -79 0
-6 -20 138 110 3 -53 0
127 -87 113 97 -135 64 141 0
-11 69 -113 40 71 0
-80 20 -74 -139 -103 73 0
143 -45 111 89 -23 -128 11 -75 -48 0
104 -99 -51 -114 -87 0
49 -131 -79 2 134 -44 -26 -11 0
102 111 -18 45 68 32 -134 0
1 102 119 -9 20 0
-51 88 -57 71 -53 143 24 66 0
-2 21 120 -98 16 115 63 -51 86 0
-117 60 1 -19 114 2 100 81 -95 -122 0
50 -80 -136 -112 113 -121 -116 117 31 0
-135 -111 16 96 26 109 -93 7 -62 0
-116 120 82 -33 32 109 -134 5 35 -92 0
-99 -2 20 128 0
143 0
